NAME = SAfile021,
SIZE = 21,
590,495,105,91,475,485,500,295,425,155,175,645,120,240,430,280,380,475,110,600,
250,370,610,420,265,835,520,205,610,235,655,480,545,705,360,660,865,605,81,
165,430,715,375,285,350,205,585,435,515,635,355,175,350,190,91,78,415,
505,480,140,345,310,380,380,280,350,305,150,240,185,495,280,280,340,
235,220,27,575,220,48,650,235,300,90,440,68,430,67,320,435,
750,165,200,140,310,255,480,650,475,125,125,270,205,230,265,
125,235,240,525,445,495,87,315,600,240,170,405,170,160,
490,170,540,680,615,36,29,640,320,77,97,130,455,
100,460,350,750,425,390,380,370,690,120,605,440,
255,590,255,220,155,150,515,290,395,390,480,
265,775,390,350,200,590,180,385,480,245,
755,385,485,320,370,450,400,150,440,
585,190,555,585,345,285,625,480,
510,535,370,545,415,320,295,
240,625,225,605,96,170,
155,440,160,63,575,
420,365,700,380,
215,310,625,
570,345,
465